NAME          
ROWS
 N  OBJ
 L  c1
 L  c2
 L  c3
COLUMNS
    MARKER    'MARKER'                 'INTORG'
    x[1]      c1        827
    x[1]      c2        287
    x[1]      c3        426
    x[1]      OBJ       -986
    x[2]      c1        380
    x[2]      c2        119
    x[2]      c3        475
    x[2]      OBJ       -449
    x[3]      c1        66
    x[3]      c2        497
    x[3]      c3        641
    x[3]      OBJ       -43
    x[4]      c1        525
    x[4]      c2        644
    x[4]      c3        825
    x[4]      OBJ       -582
    x[5]      c1        418
    x[5]      c2        581
    x[5]      c3        766
    x[5]      OBJ       -917
    x[6]      c1        395
    x[6]      c2        850
    x[6]      c3        755
    x[6]      OBJ       -611
    x[7]      c1        242
    x[7]      c2        384
    x[7]      c3        515
    x[7]      OBJ       -733
    x[8]      c1        223
    x[8]      c2        936
    x[8]      c3        94
    x[8]      OBJ       -696
    x[9]      c1        389
    x[9]      c2        764
    x[9]      c3        79
    x[9]      OBJ       -905
    x[10]     c1        11
    x[10]     c2        632
    x[10]     c3        921
    x[10]     OBJ       -282
    x[11]     c1        848
    x[11]     c2        954
    x[11]     c3        105
    x[11]     OBJ       -667
    x[12]     c1        668
    x[12]     c2        468
    x[12]     c3        242
    x[12]     OBJ       -401
    x[13]     c1        305
    x[13]     c2        957
    x[13]     c3        785
    x[13]     OBJ       -439
    x[14]     c1        919
    x[14]     c2        666
    x[14]     c3        88
    x[14]     OBJ       -584
    x[15]     c1        640
    x[15]     c2        677
    x[15]     c3        754
    x[15]     OBJ       -622
    x[16]     c1        502
    x[16]     c2        447
    x[16]     c3        182
    x[16]     OBJ       -151
    x[17]     c1        782
    x[17]     c2        805
    x[17]     c3        948
    x[17]     OBJ       -298
    x[18]     c1        521
    x[18]     c2        334
    x[18]     c3        829
    x[18]     OBJ       -823
    x[19]     c1        352
    x[19]     c2        620
    x[19]     c3        908
    x[19]     OBJ       -892
    x[20]     c1        240
    x[20]     c2        151
    x[20]     c3        365
    x[20]     OBJ       -791
    x[21]     c1        440
    x[21]     c2        602
    x[21]     c3        363
    x[21]     OBJ       -177
    x[22]     c1        132
    x[22]     c2        188
    x[22]     c3        639
    x[22]     OBJ       -601
    x[23]     c1        773
    x[23]     c2        7
    x[23]     c3        329
    x[23]     OBJ       -584
    x[24]     c1        104
    x[24]     c2        486
    x[24]     c3        174
    x[24]     OBJ       -923
    x[25]     c1        874
    x[25]     c2        83
    x[25]     c3        185
    x[25]     OBJ       -220
RHS
    rhs       c1        5788
    rhs       c2        6570
    rhs       c3        6196
RANGES
BOUNDS
 BV bounds    x[1]
 BV bounds    x[2]
 BV bounds    x[3]
 BV bounds    x[4]
 BV bounds    x[5]
 BV bounds    x[6]
 BV bounds    x[7]
 BV bounds    x[8]
 BV bounds    x[9]
 BV bounds    x[10]
 BV bounds    x[11]
 BV bounds    x[12]
 BV bounds    x[13]
 BV bounds    x[14]
 BV bounds    x[15]
 BV bounds    x[16]
 BV bounds    x[17]
 BV bounds    x[18]
 BV bounds    x[19]
 BV bounds    x[20]
 BV bounds    x[21]
 BV bounds    x[22]
 BV bounds    x[23]
 BV bounds    x[24]
 BV bounds    x[25]
ENDATA
